0	3797	9816	8977	2052	5481	7424	5971	8270	3748
3797	0	4968	2886	4392	5669	9375	4306	3081	4370
9816	4968	0	2691	273	6804	5134	7308	4024	3043
8977	2886	2691	0	8762	3714	2410	2612	8843	2909
2052	4392	273	8762	0	783	2600	949	7006	2426
5481	5669	6804	3714	783	0	7590	4510	2419	9367
7424	9375	5134	2410	2600	7590	0	6401	7599	8602
5971	4306	7308	2612	949	4510	6401	0	2910	3973
8270	3081	4024	8843	7006	2419	7599	2910	0	4795
3748	4370	3043	2909	2426	9367	8602	3973	4795	0
